Minimize
A_0_0 + A_0_1 + A_0_2 + A_0_3 + A_0_4 + A_0_5 + A_0_6 + A_0_7 + A_0_8 + A_0_9 + A_0_10 + A_0_11 + A_0_12 + A_0_13 + A_0_14 + A_0_15 + A_1_0 + A_1_1 + A_1_2 + A_1_3 + A_1_4 + A_1_5 + A_1_6 + A_1_7 + A_1_8 + A_1_9 + A_1_10 + A_1_11 + A_1_12 + A_1_13 + A_1_14 + A_1_15
Subject To
x_0_0 + x_0_1 + x_0_2 + x_0_3 + x_0_4 + x_0_5 + x_0_6 + x_0_7 + x_0_8 + x_0_9 + x_0_10 + x_0_11 + x_0_12 + x_0_13 + x_0_14 + x_0_15 + x_0_16 + x_0_17 + x_0_18 + x_0_19 + x_0_20 + x_0_21 + x_0_22 + x_0_23 + x_0_24 + x_0_25 + x_0_26 + x_0_27 + x_0_28 + x_0_29 + x_0_30 + x_0_31 + x_0_32 + x_0_33 + x_0_34 + x_0_35 + x_0_36 + x_0_37 + x_0_38 + x_0_39 + x_0_40 + x_0_41 + x_0_42 + x_0_43 + x_0_44 + x_0_45 + x_0_46 + x_0_47 + x_0_48 + x_0_49 + x_0_50 + x_0_51 + x_0_52 + x_0_53 + x_0_54 + x_0_55 + x_0_56 + x_0_57 + x_0_58 + x_0_59 + x_0_60 + x_0_61 + x_0_62 + x_0_63 >= 1
4 x_0_0 + 4 x_0_1 + 4 x_0_2 + 4 x_0_3 - x_1_0 - x_1_16 - x_1_32 - x_1_48 >= 0
4 x_1_0 + 4 x_1_16 + 4 x_1_32 + 4 x_1_48 - x_0_0 - x_0_1 - x_0_2 - x_0_3 >= 0
A_0_0 - x_0_0 >= 0
A_0_0 - x_0_1 >= 0
A_0_0 - x_0_2 >= 0
A_0_0 - x_0_3 >= 0
x_0_0 + x_0_1 + x_0_2 + x_0_3 + x_1_0 + x_1_16 + x_1_32 + x_1_48 - 3 d_0_0 >= 0
d_0_0 - x_0_0 >= 0
d_0_0 - x_1_0 >= 0
d_0_0 - x_0_1 >= 0
d_0_0 - x_1_16 >= 0
d_0_0 - x_0_2 >= 0
d_0_0 - x_1_32 >= 0
d_0_0 - x_0_3 >= 0
d_0_0 - x_1_48 >= 0
4 x_0_4 + 4 x_0_5 + 4 x_0_6 + 4 x_0_7 - x_1_1 - x_1_17 - x_1_33 - x_1_49 >= 0
4 x_1_1 + 4 x_1_17 + 4 x_1_33 + 4 x_1_49 - x_0_4 - x_0_5 - x_0_6 - x_0_7 >= 0
A_0_1 - x_0_4 >= 0
A_0_1 - x_0_5 >= 0
A_0_1 - x_0_6 >= 0
A_0_1 - x_0_7 >= 0
x_0_4 + x_0_5 + x_0_6 + x_0_7 + x_1_1 + x_1_17 + x_1_33 + x_1_49 - 3 d_0_1 >= 0
d_0_1 - x_0_4 >= 0
d_0_1 - x_1_1 >= 0
d_0_1 - x_0_5 >= 0
d_0_1 - x_1_17 >= 0
d_0_1 - x_0_6 >= 0
d_0_1 - x_1_33 >= 0
d_0_1 - x_0_7 >= 0
d_0_1 - x_1_49 >= 0
4 x_0_8 + 4 x_0_9 + 4 x_0_10 + 4 x_0_11 - x_1_2 - x_1_18 - x_1_34 - x_1_50 >= 0
4 x_1_2 + 4 x_1_18 + 4 x_1_34 + 4 x_1_50 - x_0_8 - x_0_9 - x_0_10 - x_0_11 >= 0
A_0_2 - x_0_8 >= 0
A_0_2 - x_0_9 >= 0
A_0_2 - x_0_10 >= 0
A_0_2 - x_0_11 >= 0
x_0_8 + x_0_9 + x_0_10 + x_0_11 + x_1_2 + x_1_18 + x_1_34 + x_1_50 - 3 d_0_2 >= 0
d_0_2 - x_0_8 >= 0
d_0_2 - x_1_2 >= 0
d_0_2 - x_0_9 >= 0
d_0_2 - x_1_18 >= 0
d_0_2 - x_0_10 >= 0
d_0_2 - x_1_34 >= 0
d_0_2 - x_0_11 >= 0
d_0_2 - x_1_50 >= 0
4 x_0_12 + 4 x_0_13 + 4 x_0_14 + 4 x_0_15 - x_1_3 - x_1_19 - x_1_35 - x_1_51 >= 0
4 x_1_3 + 4 x_1_19 + 4 x_1_35 + 4 x_1_51 - x_0_12 - x_0_13 - x_0_14 - x_0_15 >= 0
A_0_3 - x_0_12 >= 0
A_0_3 - x_0_13 >= 0
A_0_3 - x_0_14 >= 0
A_0_3 - x_0_15 >= 0
x_0_12 + x_0_13 + x_0_14 + x_0_15 + x_1_3 + x_1_19 + x_1_35 + x_1_51 - 3 d_0_3 >= 0
d_0_3 - x_0_12 >= 0
d_0_3 - x_1_3 >= 0
d_0_3 - x_0_13 >= 0
d_0_3 - x_1_19 >= 0
d_0_3 - x_0_14 >= 0
d_0_3 - x_1_35 >= 0
d_0_3 - x_0_15 >= 0
d_0_3 - x_1_51 >= 0
4 x_0_16 + 4 x_0_17 + 4 x_0_18 + 4 x_0_19 - x_1_4 - x_1_20 - x_1_36 - x_1_52 >= 0
4 x_1_4 + 4 x_1_20 + 4 x_1_36 + 4 x_1_52 - x_0_16 - x_0_17 - x_0_18 - x_0_19 >= 0
A_0_4 - x_0_16 >= 0
A_0_4 - x_0_17 >= 0
A_0_4 - x_0_18 >= 0
A_0_4 - x_0_19 >= 0
x_0_16 + x_0_17 + x_0_18 + x_0_19 + x_1_4 + x_1_20 + x_1_36 + x_1_52 - 3 d_0_4 >= 0
d_0_4 - x_0_16 >= 0
d_0_4 - x_1_4 >= 0
d_0_4 - x_0_17 >= 0
d_0_4 - x_1_20 >= 0
d_0_4 - x_0_18 >= 0
d_0_4 - x_1_36 >= 0
d_0_4 - x_0_19 >= 0
d_0_4 - x_1_52 >= 0
4 x_0_20 + 4 x_0_21 + 4 x_0_22 + 4 x_0_23 - x_1_5 - x_1_21 - x_1_37 - x_1_53 >= 0
4 x_1_5 + 4 x_1_21 + 4 x_1_37 + 4 x_1_53 - x_0_20 - x_0_21 - x_0_22 - x_0_23 >= 0
A_0_5 - x_0_20 >= 0
A_0_5 - x_0_21 >= 0
A_0_5 - x_0_22 >= 0
A_0_5 - x_0_23 >= 0
x_0_20 + x_0_21 + x_0_22 + x_0_23 + x_1_5 + x_1_21 + x_1_37 + x_1_53 - 3 d_0_5 >= 0
d_0_5 - x_0_20 >= 0
d_0_5 - x_1_5 >= 0
d_0_5 - x_0_21 >= 0
d_0_5 - x_1_21 >= 0
d_0_5 - x_0_22 >= 0
d_0_5 - x_1_37 >= 0
d_0_5 - x_0_23 >= 0
d_0_5 - x_1_53 >= 0
4 x_0_24 + 4 x_0_25 + 4 x_0_26 + 4 x_0_27 - x_1_6 - x_1_22 - x_1_38 - x_1_54 >= 0
4 x_1_6 + 4 x_1_22 + 4 x_1_38 + 4 x_1_54 - x_0_24 - x_0_25 - x_0_26 - x_0_27 >= 0
A_0_6 - x_0_24 >= 0
A_0_6 - x_0_25 >= 0
A_0_6 - x_0_26 >= 0
A_0_6 - x_0_27 >= 0
x_0_24 + x_0_25 + x_0_26 + x_0_27 + x_1_6 + x_1_22 + x_1_38 + x_1_54 - 3 d_0_6 >= 0
d_0_6 - x_0_24 >= 0
d_0_6 - x_1_6 >= 0
d_0_6 - x_0_25 >= 0
d_0_6 - x_1_22 >= 0
d_0_6 - x_0_26 >= 0
d_0_6 - x_1_38 >= 0
d_0_6 - x_0_27 >= 0
d_0_6 - x_1_54 >= 0
4 x_0_28 + 4 x_0_29 + 4 x_0_30 + 4 x_0_31 - x_1_7 - x_1_23 - x_1_39 - x_1_55 >= 0
4 x_1_7 + 4 x_1_23 + 4 x_1_39 + 4 x_1_55 - x_0_28 - x_0_29 - x_0_30 - x_0_31 >= 0
A_0_7 - x_0_28 >= 0
A_0_7 - x_0_29 >= 0
A_0_7 - x_0_30 >= 0
A_0_7 - x_0_31 >= 0
x_0_28 + x_0_29 + x_0_30 + x_0_31 + x_1_7 + x_1_23 + x_1_39 + x_1_55 - 3 d_0_7 >= 0
d_0_7 - x_0_28 >= 0
d_0_7 - x_1_7 >= 0
d_0_7 - x_0_29 >= 0
d_0_7 - x_1_23 >= 0
d_0_7 - x_0_30 >= 0
d_0_7 - x_1_39 >= 0
d_0_7 - x_0_31 >= 0
d_0_7 - x_1_55 >= 0
4 x_0_32 + 4 x_0_33 + 4 x_0_34 + 4 x_0_35 - x_1_8 - x_1_24 - x_1_40 - x_1_56 >= 0
4 x_1_8 + 4 x_1_24 + 4 x_1_40 + 4 x_1_56 - x_0_32 - x_0_33 - x_0_34 - x_0_35 >= 0
A_0_8 - x_0_32 >= 0
A_0_8 - x_0_33 >= 0
A_0_8 - x_0_34 >= 0
A_0_8 - x_0_35 >= 0
x_0_32 + x_0_33 + x_0_34 + x_0_35 + x_1_8 + x_1_24 + x_1_40 + x_1_56 - 3 d_0_8 >= 0
d_0_8 - x_0_32 >= 0
d_0_8 - x_1_8 >= 0
d_0_8 - x_0_33 >= 0
d_0_8 - x_1_24 >= 0
d_0_8 - x_0_34 >= 0
d_0_8 - x_1_40 >= 0
d_0_8 - x_0_35 >= 0
d_0_8 - x_1_56 >= 0
4 x_0_36 + 4 x_0_37 + 4 x_0_38 + 4 x_0_39 - x_1_9 - x_1_25 - x_1_41 - x_1_57 >= 0
4 x_1_9 + 4 x_1_25 + 4 x_1_41 + 4 x_1_57 - x_0_36 - x_0_37 - x_0_38 - x_0_39 >= 0
A_0_9 - x_0_36 >= 0
A_0_9 - x_0_37 >= 0
A_0_9 - x_0_38 >= 0
A_0_9 - x_0_39 >= 0
x_0_36 + x_0_37 + x_0_38 + x_0_39 + x_1_9 + x_1_25 + x_1_41 + x_1_57 - 3 d_0_9 >= 0
d_0_9 - x_0_36 >= 0
d_0_9 - x_1_9 >= 0
d_0_9 - x_0_37 >= 0
d_0_9 - x_1_25 >= 0
d_0_9 - x_0_38 >= 0
d_0_9 - x_1_41 >= 0
d_0_9 - x_0_39 >= 0
d_0_9 - x_1_57 >= 0
4 x_0_40 + 4 x_0_41 + 4 x_0_42 + 4 x_0_43 - x_1_10 - x_1_26 - x_1_42 - x_1_58 >= 0
4 x_1_10 + 4 x_1_26 + 4 x_1_42 + 4 x_1_58 - x_0_40 - x_0_41 - x_0_42 - x_0_43 >= 0
A_0_10 - x_0_40 >= 0
A_0_10 - x_0_41 >= 0
A_0_10 - x_0_42 >= 0
A_0_10 - x_0_43 >= 0
x_0_40 + x_0_41 + x_0_42 + x_0_43 + x_1_10 + x_1_26 + x_1_42 + x_1_58 - 3 d_0_10 >= 0
d_0_10 - x_0_40 >= 0
d_0_10 - x_1_10 >= 0
d_0_10 - x_0_41 >= 0
d_0_10 - x_1_26 >= 0
d_0_10 - x_0_42 >= 0
d_0_10 - x_1_42 >= 0
d_0_10 - x_0_43 >= 0
d_0_10 - x_1_58 >= 0
4 x_0_44 + 4 x_0_45 + 4 x_0_46 + 4 x_0_47 - x_1_11 - x_1_27 - x_1_43 - x_1_59 >= 0
4 x_1_11 + 4 x_1_27 + 4 x_1_43 + 4 x_1_59 - x_0_44 - x_0_45 - x_0_46 - x_0_47 >= 0
A_0_11 - x_0_44 >= 0
A_0_11 - x_0_45 >= 0
A_0_11 - x_0_46 >= 0
A_0_11 - x_0_47 >= 0
x_0_44 + x_0_45 + x_0_46 + x_0_47 + x_1_11 + x_1_27 + x_1_43 + x_1_59 - 3 d_0_11 >= 0
d_0_11 - x_0_44 >= 0
d_0_11 - x_1_11 >= 0
d_0_11 - x_0_45 >= 0
d_0_11 - x_1_27 >= 0
d_0_11 - x_0_46 >= 0
d_0_11 - x_1_43 >= 0
d_0_11 - x_0_47 >= 0
d_0_11 - x_1_59 >= 0
4 x_0_48 + 4 x_0_49 + 4 x_0_50 + 4 x_0_51 - x_1_12 - x_1_28 - x_1_44 - x_1_60 >= 0
4 x_1_12 + 4 x_1_28 + 4 x_1_44 + 4 x_1_60 - x_0_48 - x_0_49 - x_0_50 - x_0_51 >= 0
A_0_12 - x_0_48 >= 0
A_0_12 - x_0_49 >= 0
A_0_12 - x_0_50 >= 0
A_0_12 - x_0_51 >= 0
x_0_48 + x_0_49 + x_0_50 + x_0_51 + x_1_12 + x_1_28 + x_1_44 + x_1_60 - 3 d_0_12 >= 0
d_0_12 - x_0_48 >= 0
d_0_12 - x_1_12 >= 0
d_0_12 - x_0_49 >= 0
d_0_12 - x_1_28 >= 0
d_0_12 - x_0_50 >= 0
d_0_12 - x_1_44 >= 0
d_0_12 - x_0_51 >= 0
d_0_12 - x_1_60 >= 0
4 x_0_52 + 4 x_0_53 + 4 x_0_54 + 4 x_0_55 - x_1_13 - x_1_29 - x_1_45 - x_1_61 >= 0
4 x_1_13 + 4 x_1_29 + 4 x_1_45 + 4 x_1_61 - x_0_52 - x_0_53 - x_0_54 - x_0_55 >= 0
A_0_13 - x_0_52 >= 0
A_0_13 - x_0_53 >= 0
A_0_13 - x_0_54 >= 0
A_0_13 - x_0_55 >= 0
x_0_52 + x_0_53 + x_0_54 + x_0_55 + x_1_13 + x_1_29 + x_1_45 + x_1_61 - 3 d_0_13 >= 0
d_0_13 - x_0_52 >= 0
d_0_13 - x_1_13 >= 0
d_0_13 - x_0_53 >= 0
d_0_13 - x_1_29 >= 0
d_0_13 - x_0_54 >= 0
d_0_13 - x_1_45 >= 0
d_0_13 - x_0_55 >= 0
d_0_13 - x_1_61 >= 0
4 x_0_56 + 4 x_0_57 + 4 x_0_58 + 4 x_0_59 - x_1_14 - x_1_30 - x_1_46 - x_1_62 >= 0
4 x_1_14 + 4 x_1_30 + 4 x_1_46 + 4 x_1_62 - x_0_56 - x_0_57 - x_0_58 - x_0_59 >= 0
A_0_14 - x_0_56 >= 0
A_0_14 - x_0_57 >= 0
A_0_14 - x_0_58 >= 0
A_0_14 - x_0_59 >= 0
x_0_56 + x_0_57 + x_0_58 + x_0_59 + x_1_14 + x_1_30 + x_1_46 + x_1_62 - 3 d_0_14 >= 0
d_0_14 - x_0_56 >= 0
d_0_14 - x_1_14 >= 0
d_0_14 - x_0_57 >= 0
d_0_14 - x_1_30 >= 0
d_0_14 - x_0_58 >= 0
d_0_14 - x_1_46 >= 0
d_0_14 - x_0_59 >= 0
d_0_14 - x_1_62 >= 0
4 x_0_60 + 4 x_0_61 + 4 x_0_62 + 4 x_0_63 - x_1_15 - x_1_31 - x_1_47 - x_1_63 >= 0
4 x_1_15 + 4 x_1_31 + 4 x_1_47 + 4 x_1_63 - x_0_60 - x_0_61 - x_0_62 - x_0_63 >= 0
A_0_15 - x_0_60 >= 0
A_0_15 - x_0_61 >= 0
A_0_15 - x_0_62 >= 0
A_0_15 - x_0_63 >= 0
x_0_60 + x_0_61 + x_0_62 + x_0_63 + x_1_15 + x_1_31 + x_1_47 + x_1_63 - 3 d_0_15 >= 0
d_0_15 - x_0_60 >= 0
d_0_15 - x_1_15 >= 0
d_0_15 - x_0_61 >= 0
d_0_15 - x_1_31 >= 0
d_0_15 - x_0_62 >= 0
d_0_15 - x_1_47 >= 0
d_0_15 - x_0_63 >= 0
d_0_15 - x_1_63 >= 0
4 x_1_0 + 4 x_1_1 + 4 x_1_2 + 4 x_1_3 - x_2_0 - x_2_16 - x_2_32 - x_2_48 >= 0
4 x_2_0 + 4 x_2_16 + 4 x_2_32 + 4 x_2_48 - x_1_0 - x_1_1 - x_1_2 - x_1_3 >= 0
A_1_0 - x_1_0 >= 0
A_1_0 - x_1_1 >= 0
A_1_0 - x_1_2 >= 0
A_1_0 - x_1_3 >= 0
x_1_0 + x_1_1 + x_1_2 + x_1_3 + x_2_0 + x_2_16 + x_2_32 + x_2_48 - 3 d_1_0 >= 0
d_1_0 - x_1_0 >= 0
d_1_0 - x_2_0 >= 0
d_1_0 - x_1_1 >= 0
d_1_0 - x_2_16 >= 0
d_1_0 - x_1_2 >= 0
d_1_0 - x_2_32 >= 0
d_1_0 - x_1_3 >= 0
d_1_0 - x_2_48 >= 0
4 x_1_4 + 4 x_1_5 + 4 x_1_6 + 4 x_1_7 - x_2_1 - x_2_17 - x_2_33 - x_2_49 >= 0
4 x_2_1 + 4 x_2_17 + 4 x_2_33 + 4 x_2_49 - x_1_4 - x_1_5 - x_1_6 - x_1_7 >= 0
A_1_1 - x_1_4 >= 0
A_1_1 - x_1_5 >= 0
A_1_1 - x_1_6 >= 0
A_1_1 - x_1_7 >= 0
x_1_4 + x_1_5 + x_1_6 + x_1_7 + x_2_1 + x_2_17 + x_2_33 + x_2_49 - 3 d_1_1 >= 0
d_1_1 - x_1_4 >= 0
d_1_1 - x_2_1 >= 0
d_1_1 - x_1_5 >= 0
d_1_1 - x_2_17 >= 0
d_1_1 - x_1_6 >= 0
d_1_1 - x_2_33 >= 0
d_1_1 - x_1_7 >= 0
d_1_1 - x_2_49 >= 0
4 x_1_8 + 4 x_1_9 + 4 x_1_10 + 4 x_1_11 - x_2_2 - x_2_18 - x_2_34 - x_2_50 >= 0
4 x_2_2 + 4 x_2_18 + 4 x_2_34 + 4 x_2_50 - x_1_8 - x_1_9 - x_1_10 - x_1_11 >= 0
A_1_2 - x_1_8 >= 0
A_1_2 - x_1_9 >= 0
A_1_2 - x_1_10 >= 0
A_1_2 - x_1_11 >= 0
x_1_8 + x_1_9 + x_1_10 + x_1_11 + x_2_2 + x_2_18 + x_2_34 + x_2_50 - 3 d_1_2 >= 0
d_1_2 - x_1_8 >= 0
d_1_2 - x_2_2 >= 0
d_1_2 - x_1_9 >= 0
d_1_2 - x_2_18 >= 0
d_1_2 - x_1_10 >= 0
d_1_2 - x_2_34 >= 0
d_1_2 - x_1_11 >= 0
d_1_2 - x_2_50 >= 0
4 x_1_12 + 4 x_1_13 + 4 x_1_14 + 4 x_1_15 - x_2_3 - x_2_19 - x_2_35 - x_2_51 >= 0
4 x_2_3 + 4 x_2_19 + 4 x_2_35 + 4 x_2_51 - x_1_12 - x_1_13 - x_1_14 - x_1_15 >= 0
A_1_3 - x_1_12 >= 0
A_1_3 - x_1_13 >= 0
A_1_3 - x_1_14 >= 0
A_1_3 - x_1_15 >= 0
x_1_12 + x_1_13 + x_1_14 + x_1_15 + x_2_3 + x_2_19 + x_2_35 + x_2_51 - 3 d_1_3 >= 0
d_1_3 - x_1_12 >= 0
d_1_3 - x_2_3 >= 0
d_1_3 - x_1_13 >= 0
d_1_3 - x_2_19 >= 0
d_1_3 - x_1_14 >= 0
d_1_3 - x_2_35 >= 0
d_1_3 - x_1_15 >= 0
d_1_3 - x_2_51 >= 0
4 x_1_16 + 4 x_1_17 + 4 x_1_18 + 4 x_1_19 - x_2_4 - x_2_20 - x_2_36 - x_2_52 >= 0
4 x_2_4 + 4 x_2_20 + 4 x_2_36 + 4 x_2_52 - x_1_16 - x_1_17 - x_1_18 - x_1_19 >= 0
A_1_4 - x_1_16 >= 0
A_1_4 - x_1_17 >= 0
A_1_4 - x_1_18 >= 0
A_1_4 - x_1_19 >= 0
x_1_16 + x_1_17 + x_1_18 + x_1_19 + x_2_4 + x_2_20 + x_2_36 + x_2_52 - 3 d_1_4 >= 0
d_1_4 - x_1_16 >= 0
d_1_4 - x_2_4 >= 0
d_1_4 - x_1_17 >= 0
d_1_4 - x_2_20 >= 0
d_1_4 - x_1_18 >= 0
d_1_4 - x_2_36 >= 0
d_1_4 - x_1_19 >= 0
d_1_4 - x_2_52 >= 0
4 x_1_20 + 4 x_1_21 + 4 x_1_22 + 4 x_1_23 - x_2_5 - x_2_21 - x_2_37 - x_2_53 >= 0
4 x_2_5 + 4 x_2_21 + 4 x_2_37 + 4 x_2_53 - x_1_20 - x_1_21 - x_1_22 - x_1_23 >= 0
A_1_5 - x_1_20 >= 0
A_1_5 - x_1_21 >= 0
A_1_5 - x_1_22 >= 0
A_1_5 - x_1_23 >= 0
x_1_20 + x_1_21 + x_1_22 + x_1_23 + x_2_5 + x_2_21 + x_2_37 + x_2_53 - 3 d_1_5 >= 0
d_1_5 - x_1_20 >= 0
d_1_5 - x_2_5 >= 0
d_1_5 - x_1_21 >= 0
d_1_5 - x_2_21 >= 0
d_1_5 - x_1_22 >= 0
d_1_5 - x_2_37 >= 0
d_1_5 - x_1_23 >= 0
d_1_5 - x_2_53 >= 0
4 x_1_24 + 4 x_1_25 + 4 x_1_26 + 4 x_1_27 - x_2_6 - x_2_22 - x_2_38 - x_2_54 >= 0
4 x_2_6 + 4 x_2_22 + 4 x_2_38 + 4 x_2_54 - x_1_24 - x_1_25 - x_1_26 - x_1_27 >= 0
A_1_6 - x_1_24 >= 0
A_1_6 - x_1_25 >= 0
A_1_6 - x_1_26 >= 0
A_1_6 - x_1_27 >= 0
x_1_24 + x_1_25 + x_1_26 + x_1_27 + x_2_6 + x_2_22 + x_2_38 + x_2_54 - 3 d_1_6 >= 0
d_1_6 - x_1_24 >= 0
d_1_6 - x_2_6 >= 0
d_1_6 - x_1_25 >= 0
d_1_6 - x_2_22 >= 0
d_1_6 - x_1_26 >= 0
d_1_6 - x_2_38 >= 0
d_1_6 - x_1_27 >= 0
d_1_6 - x_2_54 >= 0
4 x_1_28 + 4 x_1_29 + 4 x_1_30 + 4 x_1_31 - x_2_7 - x_2_23 - x_2_39 - x_2_55 >= 0
4 x_2_7 + 4 x_2_23 + 4 x_2_39 + 4 x_2_55 - x_1_28 - x_1_29 - x_1_30 - x_1_31 >= 0
A_1_7 - x_1_28 >= 0
A_1_7 - x_1_29 >= 0
A_1_7 - x_1_30 >= 0
A_1_7 - x_1_31 >= 0
x_1_28 + x_1_29 + x_1_30 + x_1_31 + x_2_7 + x_2_23 + x_2_39 + x_2_55 - 3 d_1_7 >= 0
d_1_7 - x_1_28 >= 0
d_1_7 - x_2_7 >= 0
d_1_7 - x_1_29 >= 0
d_1_7 - x_2_23 >= 0
d_1_7 - x_1_30 >= 0
d_1_7 - x_2_39 >= 0
d_1_7 - x_1_31 >= 0
d_1_7 - x_2_55 >= 0
4 x_1_32 + 4 x_1_33 + 4 x_1_34 + 4 x_1_35 - x_2_8 - x_2_24 - x_2_40 - x_2_56 >= 0
4 x_2_8 + 4 x_2_24 + 4 x_2_40 + 4 x_2_56 - x_1_32 - x_1_33 - x_1_34 - x_1_35 >= 0
A_1_8 - x_1_32 >= 0
A_1_8 - x_1_33 >= 0
A_1_8 - x_1_34 >= 0
A_1_8 - x_1_35 >= 0
x_1_32 + x_1_33 + x_1_34 + x_1_35 + x_2_8 + x_2_24 + x_2_40 + x_2_56 - 3 d_1_8 >= 0
d_1_8 - x_1_32 >= 0
d_1_8 - x_2_8 >= 0
d_1_8 - x_1_33 >= 0
d_1_8 - x_2_24 >= 0
d_1_8 - x_1_34 >= 0
d_1_8 - x_2_40 >= 0
d_1_8 - x_1_35 >= 0
d_1_8 - x_2_56 >= 0
4 x_1_36 + 4 x_1_37 + 4 x_1_38 + 4 x_1_39 - x_2_9 - x_2_25 - x_2_41 - x_2_57 >= 0
4 x_2_9 + 4 x_2_25 + 4 x_2_41 + 4 x_2_57 - x_1_36 - x_1_37 - x_1_38 - x_1_39 >= 0
A_1_9 - x_1_36 >= 0
A_1_9 - x_1_37 >= 0
A_1_9 - x_1_38 >= 0
A_1_9 - x_1_39 >= 0
x_1_36 + x_1_37 + x_1_38 + x_1_39 + x_2_9 + x_2_25 + x_2_41 + x_2_57 - 3 d_1_9 >= 0
d_1_9 - x_1_36 >= 0
d_1_9 - x_2_9 >= 0
d_1_9 - x_1_37 >= 0
d_1_9 - x_2_25 >= 0
d_1_9 - x_1_38 >= 0
d_1_9 - x_2_41 >= 0
d_1_9 - x_1_39 >= 0
d_1_9 - x_2_57 >= 0
4 x_1_40 + 4 x_1_41 + 4 x_1_42 + 4 x_1_43 - x_2_10 - x_2_26 - x_2_42 - x_2_58 >= 0
4 x_2_10 + 4 x_2_26 + 4 x_2_42 + 4 x_2_58 - x_1_40 - x_1_41 - x_1_42 - x_1_43 >= 0
A_1_10 - x_1_40 >= 0
A_1_10 - x_1_41 >= 0
A_1_10 - x_1_42 >= 0
A_1_10 - x_1_43 >= 0
x_1_40 + x_1_41 + x_1_42 + x_1_43 + x_2_10 + x_2_26 + x_2_42 + x_2_58 - 3 d_1_10 >= 0
d_1_10 - x_1_40 >= 0
d_1_10 - x_2_10 >= 0
d_1_10 - x_1_41 >= 0
d_1_10 - x_2_26 >= 0
d_1_10 - x_1_42 >= 0
d_1_10 - x_2_42 >= 0
d_1_10 - x_1_43 >= 0
d_1_10 - x_2_58 >= 0
4 x_1_44 + 4 x_1_45 + 4 x_1_46 + 4 x_1_47 - x_2_11 - x_2_27 - x_2_43 - x_2_59 >= 0
4 x_2_11 + 4 x_2_27 + 4 x_2_43 + 4 x_2_59 - x_1_44 - x_1_45 - x_1_46 - x_1_47 >= 0
A_1_11 - x_1_44 >= 0
A_1_11 - x_1_45 >= 0
A_1_11 - x_1_46 >= 0
A_1_11 - x_1_47 >= 0
x_1_44 + x_1_45 + x_1_46 + x_1_47 + x_2_11 + x_2_27 + x_2_43 + x_2_59 - 3 d_1_11 >= 0
d_1_11 - x_1_44 >= 0
d_1_11 - x_2_11 >= 0
d_1_11 - x_1_45 >= 0
d_1_11 - x_2_27 >= 0
d_1_11 - x_1_46 >= 0
d_1_11 - x_2_43 >= 0
d_1_11 - x_1_47 >= 0
d_1_11 - x_2_59 >= 0
4 x_1_48 + 4 x_1_49 + 4 x_1_50 + 4 x_1_51 - x_2_12 - x_2_28 - x_2_44 - x_2_60 >= 0
4 x_2_12 + 4 x_2_28 + 4 x_2_44 + 4 x_2_60 - x_1_48 - x_1_49 - x_1_50 - x_1_51 >= 0
A_1_12 - x_1_48 >= 0
A_1_12 - x_1_49 >= 0
A_1_12 - x_1_50 >= 0
A_1_12 - x_1_51 >= 0
x_1_48 + x_1_49 + x_1_50 + x_1_51 + x_2_12 + x_2_28 + x_2_44 + x_2_60 - 3 d_1_12 >= 0
d_1_12 - x_1_48 >= 0
d_1_12 - x_2_12 >= 0
d_1_12 - x_1_49 >= 0
d_1_12 - x_2_28 >= 0
d_1_12 - x_1_50 >= 0
d_1_12 - x_2_44 >= 0
d_1_12 - x_1_51 >= 0
d_1_12 - x_2_60 >= 0
4 x_1_52 + 4 x_1_53 + 4 x_1_54 + 4 x_1_55 - x_2_13 - x_2_29 - x_2_45 - x_2_61 >= 0
4 x_2_13 + 4 x_2_29 + 4 x_2_45 + 4 x_2_61 - x_1_52 - x_1_53 - x_1_54 - x_1_55 >= 0
A_1_13 - x_1_52 >= 0
A_1_13 - x_1_53 >= 0
A_1_13 - x_1_54 >= 0
A_1_13 - x_1_55 >= 0
x_1_52 + x_1_53 + x_1_54 + x_1_55 + x_2_13 + x_2_29 + x_2_45 + x_2_61 - 3 d_1_13 >= 0
d_1_13 - x_1_52 >= 0
d_1_13 - x_2_13 >= 0
d_1_13 - x_1_53 >= 0
d_1_13 - x_2_29 >= 0
d_1_13 - x_1_54 >= 0
d_1_13 - x_2_45 >= 0
d_1_13 - x_1_55 >= 0
d_1_13 - x_2_61 >= 0
4 x_1_56 + 4 x_1_57 + 4 x_1_58 + 4 x_1_59 - x_2_14 - x_2_30 - x_2_46 - x_2_62 >= 0
4 x_2_14 + 4 x_2_30 + 4 x_2_46 + 4 x_2_62 - x_1_56 - x_1_57 - x_1_58 - x_1_59 >= 0
A_1_14 - x_1_56 >= 0
A_1_14 - x_1_57 >= 0
A_1_14 - x_1_58 >= 0
A_1_14 - x_1_59 >= 0
x_1_56 + x_1_57 + x_1_58 + x_1_59 + x_2_14 + x_2_30 + x_2_46 + x_2_62 - 3 d_1_14 >= 0
d_1_14 - x_1_56 >= 0
d_1_14 - x_2_14 >= 0
d_1_14 - x_1_57 >= 0
d_1_14 - x_2_30 >= 0
d_1_14 - x_1_58 >= 0
d_1_14 - x_2_46 >= 0
d_1_14 - x_1_59 >= 0
d_1_14 - x_2_62 >= 0
4 x_1_60 + 4 x_1_61 + 4 x_1_62 + 4 x_1_63 - x_2_15 - x_2_31 - x_2_47 - x_2_63 >= 0
4 x_2_15 + 4 x_2_31 + 4 x_2_47 + 4 x_2_63 - x_1_60 - x_1_61 - x_1_62 - x_1_63 >= 0
A_1_15 - x_1_60 >= 0
A_1_15 - x_1_61 >= 0
A_1_15 - x_1_62 >= 0
A_1_15 - x_1_63 >= 0
x_1_60 + x_1_61 + x_1_62 + x_1_63 + x_2_15 + x_2_31 + x_2_47 + x_2_63 - 3 d_1_15 >= 0
d_1_15 - x_1_60 >= 0
d_1_15 - x_2_15 >= 0
d_1_15 - x_1_61 >= 0
d_1_15 - x_2_31 >= 0
d_1_15 - x_1_62 >= 0
d_1_15 - x_2_47 >= 0
d_1_15 - x_1_63 >= 0
d_1_15 - x_2_63 >= 0
Binary
x_1_42
x_1_8
A_1_0
x_1_10
x_2_18
x_1_3
x_2_51
x_2_14
A_0_8
x_2_50
x_0_29
x_0_45
d_0_9
x_2_9
x_2_49
x_1_47
x_2_1
x_1_13
x_0_7
x_2_54
x_1_48
d_1_5
x_1_12
x_0_13
x_0_35
x_2_34
x_1_53
x_0_34
x_2_28
x_2_20
d_1_11
x_0_17
x_1_52
x_1_35
x_2_41
x_0_43
A_0_9
x_1_62
x_1_37
x_2_15
x_2_19
x_0_41
x_2_45
x_1_19
x_1_16
x_2_36
d_0_1
x_2_42
x_2_17
x_0_8
A_1_8
x_0_23
x_2_13
x_0_44
x_0_48
x_0_62
d_1_1
A_1_7
x_2_25
x_2_33
x_0_11
x_1_60
x_0_27
x_0_10
x_1_43
x_2_43
x_0_38
x_1_5
d_1_10
x_0_26
x_0_15
d_0_4
x_1_57
x_1_33
x_1_32
A_1_6
x_1_27
x_0_0
x_1_31
A_1_12
A_1_11
x_2_62
x_2_30
x_1_11
x_2_53
d_0_3
x_1_25
x_0_58
x_2_5
x_2_11
x_0_39
d_1_7
x_2_58
x_1_20
x_1_55
x_0_50
x_2_22
A_1_14
x_2_60
d_1_4
x_2_23
A_0_5
A_0_0
x_1_63
x_1_4
d_0_6
d_0_5
A_0_7
x_1_15
d_1_13
x_0_6
x_0_51
x_1_34
x_1_28
x_1_50
x_2_10
x_1_2
x_2_39
x_0_56
x_2_26
x_0_53
x_1_6
x_1_45
d_1_0
x_0_3
A_0_11
x_0_61
x_0_19
x_0_42
x_1_58
A_1_15
x_2_7
x_2_2
x_1_38
x_0_28
d_0_13
d_1_14
x_2_59
x_1_54
x_1_9
x_2_35
x_2_55
x_0_2
A_0_15
x_0_40
d_1_2
x_2_8
x_2_57
A_1_5
x_2_47
x_2_29
x_1_39
x_1_56
A_1_9
x_2_12
x_2_4
d_1_3
x_0_37
x_0_5
A_0_14
x_1_40
d_0_10
d_1_12
A_1_1
A_1_2
x_2_63
x_1_49
x_0_60
x_2_37
x_2_56
x_2_32
x_0_22
d_0_12
A_0_6
x_1_7
x_1_21
x_0_25
x_0_59
x_1_36
x_2_44
x_0_63
d_0_14
x_1_24
x_0_4
x_1_22
A_1_4
x_2_27
x_2_52
x_0_57
A_1_3
x_1_44
x_0_20
A_0_12
x_0_30
A_0_10
A_0_13
A_1_13
d_0_15
x_2_24
x_1_61
x_2_48
A_0_3
d_1_9
d_1_15
x_2_3
x_1_23
x_0_54
x_0_55
x_0_46
x_1_26
x_0_32
d_0_0
A_1_10
x_0_47
d_0_2
d_0_11
A_0_2
x_1_1
x_0_36
x_0_52
A_0_1
x_0_16
x_1_41
x_1_51
x_2_6
x_1_59
x_0_1
x_2_21
x_0_49
x_1_18
x_1_30
x_2_16
x_1_46
x_0_33
x_2_40
x_0_12
x_1_17
x_0_24
x_2_46
A_0_4
x_0_31
x_0_9
d_0_7
x_1_14
x_2_38
d_1_8
x_2_61
x_2_31
x_0_18
x_2_0
d_0_8
x_0_21
x_0_14
x_1_29
x_1_0
d_1_6
END